1 -1 -2 0
1 -1 -3 0
1 1 -4 0
1 2 -3 0
1 -5 -6 0
1 -7 8 0
1 7 -9 0
1 8 10 0
1 10 11 0
1 -10 2 0
1 -3 -12 0
1 4 13 0
1 4 -14 0
1 -4 -1 0
1 -15 -16 0
1 17 -18 0
1 17 -19 0
1 17 20 0
1 17 8 0
1 9 -15 0
1 -9 -7 0
1 9 -17 0
1 21 18 0
1 -21 15 0
1 -21 22 0
1 16 -6 0
1 -16 23 0
1 16 17 0
1 -6 24 0
1 -6 -15 0
1 6 22 0
1 6 17 0
1 6 -5 0
1 25 26 0
1 -27 28 0
1 -27 9 0
1 -29 19 0
1 -29 -30 0
1 -30 -31 0
1 30 32 0
1 30 33 0
1 30 -34 0
1 -19 26 0
1 35 36 0
1 -35 -37 0
1 -38 39 0
1 -40 -7 0
1 -41 -38 0
1 -42 -13 0
1 -42 -12 0
1 36 35 0
1 -36 39 0
1 12 42 0
1 14 -41 0
1 -14 43 0
1 14 42 0
1 -44 13 0
1 -44 45 0
1 44 -4 0
1 -13 44 0
1 -43 -46 0
1 -43 -11 0
1 43 13 0
1 43 -14 0
1 -43 38 0
1 46 -11 0
1 -46 14 0
1 46 -28 0
1 46 -44 0
1 47 -48 0
1 47 -49 0
1 -47 -13 0
1 -47 -44 0
1 -47 -38 0
1 -45 -48 0
1 45 -50 0
1 45 13 0
1 23 3 0
1 -23 -46 0
1 11 51 0
1 11 8 0
1 -11 -52 0
1 28 52 0
1 -24 6 0
1 -24 -43 0
1 24 -53 0
1 24 -54 0
1 24 -16 0
1 -24 46 0
1 -53 -24 0
1 53 -55 0
1 53 -56 0
1 57 13 0
1 -57 -28 0
1 -57 44 0
1 51 -24 0
1 51 58 0
1 51 -59 0
1 51 23 0
1 51 -44 0
1 -52 -24 0
1 52 23 0
1 -22 -19 0
1 22 -59 0
1 -22 -60 0
1 -61 48 0
1 61 53 0
1 61 -26 0
1 56 62 0
1 -56 63 0
1 -56 57 0
1 -64 -62 0
1 -64 19 0
1 -64 -65 0
1 66 -67 0
1 66 -68 0
1 -66 69 0
1 -66 70 0
1 66 64 0
1 71 -72 0
1 -71 73 0
1 -71 61 0
1 -54 74 0
1 54 69 0
1 -60 28 0
1 32 19 0
1 32 -26 0
1 -34 -62 0
1 34 66 0
1 -34 -26 0
1 70 -75 0
1 76 77 0
1 76 -62 0
1 -76 -78 0
1 76 79 0
1 -76 80 0
1 -76 34 0
1 62 32 0
1 62 70 0
1 65 81 0
1 -65 -69 0
1 -82 -83 0
1 82 -73 0
1 -82 -81 0
1 -82 -64 0
1 84 -85 0
1 -84 -80 0
1 80 -85 0
1 78 -62 0
1 78 -86 0
1 86 75 0
1 86 -87 0
1 -33 78 0
1 75 -67 0
1 87 77 0
1 87 88 0
1 -87 26 0
1 -85 -89 0
1 85 -84 0
1 -85 -88 0
1 85 80 0
1 -37 -90 0
1 37 91 0
1 -37 -92 0
1 93 -90 0
1 93 94 0
1 93 95 0
1 -93 38 0
1 96 -90 0
1 92 97 0
1 92 -96 0
1 -92 -98 0
1 -91 92 0
1 -91 97 0
1 -91 96 0
1 91 99 0
1 90 -96 0
1 -100 -39 0
1 100 92 0
1 100 -101 0
1 -97 -101 0
1 -102 -103 0
1 102 36 0
1 -102 104 0
1 102 -105 0
1 106 -103 0
1 -106 107 0
1 -106 -102 0
1 -106 108 0
1 -106 105 0
1 101 100 0
1 -95 109 0
1 95 96 0
1 95 110 0
1 95 -111 0
1 -95 -100 0
1 108 -109 0
1 108 106 0
1 -108 -102 0
1 -108 -100 0
1 108 -112 0
1 108 93 0
1 -94 109 0
1 -94 -97 0
1 -94 113 0
1 -94 -100 0
1 -114 -47 0
1 114 95 0
1 114 39 0
1 111 28 0
1 50 -115 0
1 -50 101 0
1 50 105 0
1 103 -116 0
1 -103 63 0
1 -103 111 0
1 104 103 0
1 -104 49 0
1 104 106 0
1 -104 -63 0
1 104 -117 0
1 105 107 0
1 -105 102 0
1 -105 -117 0
1 107 50 0
1 107 -118 0
1 -107 119 0
1 107 102 0
1 48 103 0
1 -48 -43 0
1 48 46 0
1 48 52 0
1 -63 -120 0
1 -63 -121 0
1 121 -104 0
1 -121 -122 0
1 115 -63 0
1 115 123 0
1 -123 -55 0
1 123 59 0
1 120 50 0
1 120 124 0
1 120 -117 0
1 55 -115 0
1 55 -125 0
1 -126 54 0
1 -126 -52 0
1 74 -115 0
1 -74 67 0
1 -74 123 0
1 127 -125 0
1 127 -70 0
1 -128 -129 0
1 -128 73 0
1 -128 -55 0
1 -128 -126 0
1 -130 83 0
1 -130 -55 0
1 -130 -126 0
1 -125 -74 0
1 -125 126 0
1 131 124 0
1 131 -127 0
1 -73 -128 0
1 73 132 0
1 69 82 0
1 -69 73 0
1 69 128 0
1 -69 -58 0
1 -69 133 0
1 -83 -72 0
1 83 -134 0
1 83 133 0
1 83 -135 0
1 -83 -136 0
1 81 -83 0
1 81 -133 0
1 81 -86 0
1 81 -135 0
1 81 136 0
1 133 -77 0
1 -133 137 0
1 -133 79 0
1 133 -81 0
1 132 73 0
1 -132 -81 0
1 132 138 0
1 -58 139 0
1 -135 -140 0
1 135 -139 0
1 135 52 0
1 77 -141 0
1 77 -87 0
1 -79 -82 0
1 79 68 0
1 -89 72 0
1 -89 133 0
1 -89 68 0
1 89 136 0
1 142 72 0
1 -142 89 0
1 -68 -142 0
1 -68 143 0
1 -72 -71 0
1 -72 89 0
1 -72 -79 0
1 72 -81 0
1 -141 -139 0
1 136 89 0
1 136 141 0
1 136 144 0
1 145 140 0
1 -145 72 0
1 -145 75 0
1 146 -147 0
1 146 148 0
1 -146 -149 0
1 -150 151 0
1 -150 68 0
1 -150 152 0
1 153 147 0
1 153 88 0
1 -153 142 0
1 -147 -154 0
1 147 155 0
1 -147 -146 0
1 -156 157 0
1 -156 -65 0
1 -158 143 0
1 -159 155 0
1 159 -153 0
1 -160 151 0
1 154 -149 0
1 -154 147 0
1 149 -150 0
1 -151 160 0
1 151 159 0
1 -151 146 0
1 152 87 0
1 148 -154 0
1 -119 161 0
1 -119 -162 0
1 -119 -94 0
1 119 107 0
1 -119 -105 0
1 -109 -48 0
1 -109 -94 0
1 -109 98 0
1 109 -105 0
1 163 -162 0
1 163 -113 0
1 163 -107 0
1 -163 63 0
1 -163 -98 0
1 163 -112 0
1 -122 113 0
1 122 107 0
1 -122 112 0
1 -98 162 0
1 98 119 0
1 164 -165 0
1 161 -122 0
1 -118 -162 0
1 -118 166 0
1 -117 120 0
1 117 166 0
1 167 -162 0
1 -167 110 0
1 -167 168 0
1 169 162 0
1 169 -110 0
1 -169 -170 0
1 -169 -171 0
1 169 -168 0
1 -166 124 0
1 166 167 0
1 -166 118 0
1 166 -172 0
1 -166 173 0
1 -166 169 0
1 -166 174 0
1 110 167 0
1 112 118 0
1 -112 -172 0
1 113 175 0
1 -113 94 0
1 -113 118 0
1 113 -163 0
1 113 169 0
1 124 116 0
1 124 120 0
1 124 115 0
1 -124 -176 0
1 176 -124 0
1 -176 170 0
1 -134 177 0
1 116 -178 0
1 -116 -176 0
1 179 180 0
1 168 -181 0
1 168 -170 0
1 -168 169 0
1 170 181 0
1 -170 -107 0
1 170 -173 0
1 170 -176 0
1 -129 128 0
1 129 -130 0
1 -129 -135 0
1 178 182 0
1 178 125 0
1 183 184 0
1 -185 -186 0
1 -185 177 0
1 -185 184 0
1 186 -183 0
1 -186 -115 0
1 -186 144 0
1 -177 -186 0
1 177 187 0
1 177 -178 0
1 -182 -188 0
1 182 185 0
1 189 188 0
1 -189 -129 0
1 189 -190 0
1 140 139 0
1 140 191 0
1 -140 136 0
1 139 -141 0
1 139 -135 0
1 139 132 0
1 144 192 0
1 -144 193 0
1 144 137 0
1 144 177 0
1 144 -136 0
1 187 -144 0
1 -187 -194 0
1 -187 -195 0
1 -196 140 0
1 196 157 0
1 -196 143 0
1 -184 -183 0
1 -197 -191 0
1 143 -158 0
1 143 -198 0
1 -143 -68 0
1 -198 -196 0
1 199 157 0
1 -199 -196 0
1 -199 -160 0
1 -157 154 0
1 -157 195 0
1 137 -198 0
1 137 133 0
1 137 143 0
1 -137 -144 0
1 -193 58 0
1 193 -199 0
1 195 -143 0
1 175 -129 0
1 -175 -200 0
1 175 170 0
1 -172 -175 0
1 -172 112 0
1 181 -170 0
1 -201 168 0
1 202 -181 0
1 203 188 0
1 165 200 0
1 200 -201 0
1 200 -172 0
1 188 -204 0
1 -188 168 0
1 205 203 0
1 -205 168 0
1 -192 194 0
1 -194 206 0
1 -194 -182 0
1 194 187 0
1 -204 181 0
1 -207 192 0
1 -207 188 0
1 207 208 0
1 208 -113 0
1 208 -205 0
1 -190 -206 0
1 190 191 0
1 209 -210 0
1 -210 -197 0
1 210 -204 0
1 210 211 0
1 206 192 0
1 180 -179 0
1 -212 192 0
1 212 -194 0
1 212 -168 0
1 211 190 0
